# Solution for model F-JSSP-SDST
# Objective value = 443
B0(14) 0
B1(18) 1
B2(14) 0
B3(18) 1
B4(16) 1
B5(13) 0
B6(13) 1
B7(13) 0
B8(14) 1
B9(19) 0
B10(18) 0
B11(11) 1
B12(14) 1
B13(16) 0
B14(18) 0
B15(13) 1
B16(15) 1
B17(11) 0
B18(0) 0
B19(0) 0
B20(0) 0
B21(2) 0
B22(4) 0
B23(2) 0
B24(4) 0
B25(2) 0
B26(2) 0
B27(0) 0
B28(0) 0
B29(0) 0
B30(2) 0
B31(4) 1
B32(2) 0
B33(4) 1
B34(2) 1
B35(2) 0
B36(0) 0
B37(0) 0
B38(0) 0
B39(2) 0
B40(2) 0
B41(4) 1
B42(2) 1
B43(4) 0
B44(4) 0
B45(0) 0
B46(0) 0
B47(0) 0
B48(0) 0
B49(0) 0
B50(0) 0
B51(2) 1
B52(2) 1
B53(2) 0
B54(0) 0
B55(0) 0
B56(0) 0
B57(0) 0
B58(0) 0
B59(0) 0
B60(4) 1
B61(2) 0
B62(2) 0
B63(0) 0
B64(0) 0
B65(0) 0
B66(0) 0
B67(0) 0
B68(0) 0
B69(2) 0
B70(4) 1
B71(4) 0
B72(0) 0
B73(0) 0
B74(0) 0
B75(0) 0
B76(0) 0
B77(0) 0
B78(0) 0
B79(0) 0
B80(0) 0
B81(0) 0
B82(0) 0
B83(0) 0
B84(0) 0
B85(0) 0
B86(0) 0
B87(0) 0
B88(0) 0
B89(0) 0
B90(0) 0
B91(0) 0
B92(0) 0
B93(0) 0
B94(0) 0
B95(0) 0
B96(0) 0
B97(0) 0
B98(0) 0
I99(14) 0
I100(18) 11
I101(16) 0
I102(20) 41
I103(18) 77
I104(16) 0
I105(13) 55
I106(13) 0
I107(15) 92
I108(21) 0
I109(20) 0
I110(14) 142
I111(15) 0
I112(17) 0
I113(20) 0
I114(16) 50
I115(19) 134
I116(15) 0
I117(1) 443
B118(2) 0
B119(2) 0
B120(2) 0
B121(2) 1
B122(4) 1
B123(4) 0
B124(2) 1
B125(2) 0
B126(2) 1
B127(2) 0
B128(4) 0
B129(4) 1
B130(2) 1
B131(2) 0
B132(2) 0
B133(2) 1
B134(4) 1
B135(4) 0
